19:27:19 | INFO    | Run started | run_id: SR_SV_WT_case1_P5_eps77 | log file: C:\Users\Asus\Documents\GitHub\logistics-model2\internal-logistics-model2\results\SR_SV_WT\case1\SR_SV_WT_case1_P5_eps77_2026_05_06_19_27.log
19:27:19 | INFO    | Products loaded | sheet=case1 | rows=15
19:27:19 | INFO    | Data loaded | |N|=31 |Nw|=30 |K|=1 |R|=1 |P|=5 | U=30
19:27:19 | INFO    | Big-M | time=491.0 precedence=480.0 wait=465.0 load_lb=20 load_ub=20
19:27:19 | INFO    | Set parameter Username
19:27:19 | INFO    | Set parameter LicenseID to value 2811848
19:27:19 | INFO    | Academic license - for non-commercial use only - expires 2027-04-22
19:27:19 | INFO    | Objective set | primary: min total_wait | tie-break weight on route_duration: 0.001
19:27:19 | INFO    | Constraint (3) added | route_duration <= 77
19:27:19 | INFO    | Constraints (4)-(9) added | route structure
19:27:19 | INFO    | Constraints (10)-(12) added | product assignment
19:27:19 | INFO    | Constraints (13)-(15) added | route timing
19:27:19 | INFO    | Constraints (16) added | time consistency
19:27:19 | INFO    | Constraints (17)-(19) added | service times
19:27:19 | INFO    | Constraints (20)-(22) added | precedence, route closure, waiting
19:27:19 | INFO    | Constraints (23)-(27) added | load propagation
19:27:19 | INFO    | Constraints (28)-(32) added | MTZ and route ordering
19:27:19 | INFO    | Set parameter TimeLimit to value 600
19:27:19 | INFO    | Set parameter MIPGap to value 0.01
19:27:19 | INFO    | Set parameter Presolve to value 2
19:27:19 | INFO    | Set parameter LogFile to value "C:\Users\Asus\Documents\GitHub\logistics-model2\internal-logistics-model2\results\SR_SV_WT\case1\result_SR_SV_WT_case1_P5_eps77_2026_05_06_19_27.log"
19:27:19 | INFO    | Solver configured | TimeLimit=600s | MIPGap=0.01 | gurobi_log=C:\Users\Asus\Documents\GitHub\logistics-model2\internal-logistics-model2\results\SR_SV_WT\case1\result_SR_SV_WT_case1_P5_eps77_2026_05_06_19_27.log
19:27:19 | INFO    | Optimization starting...
19:27:19 | INFO    | Gurobi Optimizer version 12.0.0 build v12.0.0rc1 (win64 - Windows 10.0 (19045.2))
19:27:19 | INFO    | 
19:27:19 | INFO    | CPU model: 12th Gen Intel(R) Core(TM) i7-12650H, instruction set [SSE2|AVX|AVX2]
19:27:19 | INFO    | Thread count: 10 physical cores, 16 logical processors, using up to 16 threads
19:27:19 | INFO    | 
19:27:19 | INFO    | Non-default parameters:
19:27:19 | INFO    | TimeLimit  600
19:27:19 | INFO    | MIPGap  0.01
19:27:19 | INFO    | Presolve  2
19:27:19 | INFO    | 
19:27:19 | INFO    | Optimize a model with 3852 rows, 1123 columns and 19430 nonzeros
19:27:19 | INFO    | Model fingerprint: 0x88f94e3f
19:27:19 | INFO    | Variable types: 158 continuous, 965 integer (935 binary)
19:27:19 | INFO    | Coefficient statistics:
19:27:19 | INFO    |   Matrix range     [1e+00, 5e+02]
19:27:19 | INFO    |   Objective range  [1e-03, 1e+00]
19:27:19 | INFO    |   Bounds range     [1e+00, 3e+01]
19:27:19 | INFO    |   RHS range        [1e+00, 5e+02]
19:27:19 | INFO    | Presolve removed 3455 rows and 976 columns
19:27:19 | INFO    | Presolve time: 0.01s
19:27:19 | INFO    | Presolved: 397 rows, 147 columns, 2105 nonzeros
19:27:19 | INFO    | Variable types: 32 continuous, 115 integer (105 binary)
19:27:19 | INFO    | Root relaxation presolve removed 2 rows and 0 columns
19:27:19 | INFO    | Root relaxation presolved: 395 rows, 148 columns, 2093 nonzeros
19:27:19 | INFO    | 
19:27:19 | INFO    | 
19:27:19 | INFO    | Root relaxation: objective 1.500000e+01, 66 iterations, 0.00 seconds (0.00 work units)
19:27:19 | INFO    | 
19:27:19 | INFO    |     Nodes    |    Current Node    |     Objective Bounds      |     Work
19:27:19 | INFO    |  Expl Unexpl |  Obj  Depth IntInf | Incumbent    BestBd   Gap | It/Node Time
19:27:19 | INFO    | 
19:27:19 | INFO    |      0     0   15.00000    0   12          -   15.00000      -     -    0s
19:27:19 | INFO    |      0     0   15.00000    0   33          -   15.00000      -     -    0s
19:27:19 | INFO    |      0     0   15.00000    0   25          -   15.00000      -     -    0s
19:27:19 | INFO    |      0     0   15.00557    0   30          -   15.00557      -     -    0s
19:27:19 | INFO    |      0     0   21.08022    0   29          -   21.08022      -     -    0s
19:27:19 | INFO    |      0     0   21.81770    0   26          -   21.81770      -     -    0s
19:27:19 | INFO    |      0     0   21.87756    0   26          -   21.87756      -     -    0s
19:27:19 | INFO    |      0     0   27.37595    0   35          -   27.37595      -     -    0s
19:27:19 | INFO    |      0     0   29.85602    0   37          -   29.85602      -     -    0s
19:27:19 | INFO    |      0     0   34.59390    0   30          -   34.59390      -     -    0s
19:27:19 | INFO    |      0     0   34.64924    0   30          -   34.64924      -     -    0s
19:27:19 | INFO    |      0     0   34.91415    0   42          -   34.91415      -     -    0s
19:27:19 | INFO    |      0     0   34.97370    0   33          -   34.97370      -     -    0s
19:27:19 | INFO    |      0     0   35.02471    0   36          -   35.02471      -     -    0s
19:27:19 | INFO    |      0     0   35.08182    0   38          -   35.08182      -     -    0s
19:27:19 | INFO    |      0     0   36.07551    0   36          -   36.07551      -     -    0s
19:27:19 | INFO    |      0     0   36.16798    0   37          -   36.16798      -     -    0s
19:27:19 | INFO    |      0     0   36.16798    0   39          -   36.16798      -     -    0s
19:27:19 | INFO    |      0     0   36.57962    0   38          -   36.57962      -     -    0s
19:27:19 | INFO    |      0     0   36.57962    0   40          -   36.57962      -     -    0s
19:27:19 | INFO    |      0     0   36.57962    0   40          -   36.57962      -     -    0s
19:27:19 | INFO    |      0     2   36.57962    0   39          -   36.57962      -     -    0s
19:27:19 | INFO    | * 1469   857              19      91.0770000   43.35967  52.4%  11.6    0s
19:27:21 | INFO    | 
19:27:21 | INFO    | Cutting planes:
19:27:21 | INFO    |   Learned: 15
19:27:21 | INFO    |   Gomory: 6
19:27:21 | INFO    |   Cover: 3
19:27:21 | INFO    |   Implied bound: 42
19:27:21 | INFO    |   Projected implied bound: 1
19:27:21 | INFO    |   MIR: 87
19:27:21 | INFO    |   StrongCG: 3
19:27:21 | INFO    |   Flow cover: 148
19:27:21 | INFO    |   Inf proof: 22
19:27:21 | INFO    |   Zero half: 2
19:27:21 | INFO    |   RLT: 22
19:27:21 | INFO    |   Relax-and-lift: 25
19:27:21 | INFO    |   PSD: 2
19:27:21 | INFO    | 
19:27:21 | INFO    | Explored 18690 nodes (285225 simplex iterations) in 1.72 seconds (1.79 work units)
19:27:21 | INFO    | Thread count was 16 (of 16 available processors)
19:27:21 | INFO    | 
19:27:21 | INFO    | Solution count 1: 91.077 
19:27:21 | INFO    | 
19:27:21 | INFO    | Optimal solution found (tolerance 1.00e-02)
19:27:21 | INFO    | Best objective 9.107700000000e+01, best bound 9.107700000000e+01, gap 0.0000%
19:27:21 | INFO    | Solution found | total_wait=91.00 | route_duration=77.00
19:27:21 | INFO    | Objective=91.08 | runtime=1.72s | MIP Gap=0.00%
19:27:21 | INFO    | Generating Excel output | C:\Users\Asus\Documents\GitHub\logistics-model2\internal-logistics-model2\results\SR_SV_WT\case1\result_SR_SV_WT_case1_P5_eps77_2026_05_06_19_27.xlsx
19:27:21 | INFO    | Excel output written | 12 sheets | C:\Users\Asus\Documents\GitHub\logistics-model2\internal-logistics-model2\results\SR_SV_WT\case1\result_SR_SV_WT_case1_P5_eps77_2026_05_06_19_27.xlsx
19:27:21 | INFO    | Master Pareto updated | 11 total rows | C:\Users\Asus\Documents\GitHub\logistics-model2\internal-logistics-model2\results\master_pareto.xlsx
19:27:21 | INFO    | Run complete | run_id=SR_SV_WT_case1_P5_eps77
